<instance format="XCSP3" type="CSP">
  <variables>
    <var id="x0"> 1 6 12 </var>
    <var id="x1"> 4 7 8 </var>
    <var id="x2"> 1 4..6 </var>
    <var id="x3"> 1 4 6 </var>
    <var id="x4"> 1 4 7 8 </var>
    <var id="x5"> 5 7 8 </var>
    <var id="x6"> 5..8 </var>
    <var id="x7"> 0 1 13 14 </var>
    <var id="x8"> 0..2 14 </var>
    <var id="x9"> 1 2 7 14 </var>
    <var id="x10"> 0 1 10 13 14 </var>
    <var id="x11"> 0 1 7 13 </var>
    <var id="x12"> 0 2 7 10 </var>
    <var id="x13"> 2 7 10 13 </var>
    <var id="x14"> 1 4 10 </var>
    <var id="x15"> 1 4 5 </var>
    <var id="x16"> 1 2 4 </var>
    <var id="x17"> 1 2 5 10 11 </var>
    <var id="x18"> 2 5 7 10 11 </var>
    <var id="x19"> 2 5 7 10 </var>
    <var id="x20"> 1 7 10 </var>
    <var id="x21"> 1 4 9 13 </var>
    <var id="x22"> 4 7 9 10 </var>
    <var id="x23"> 1 4 10 13 </var>
    <var id="x24"> 1 10 </var>
    <var id="x25"> 1 3 7 9 13 </var>
    <var id="x26"> 7 10 13 </var>
    <var id="x27"> 1 3 7 10 </var>
    <var id="x28"> 2 3 10 12 13 </var>
    <var id="x29"> 2 11 13 14 </var>
    <var id="x30"> 10 12..14 </var>
    <var id="x31"> 2 3 14 </var>
    <var id="x32"> 2 12 14 </var>
    <var id="x33"> 10 13 14 </var>
    <var id="x34"> 3 13 14 </var>
    <var id="x35"> 2 6 12 13 </var>
    <var id="x36"> 4 12 13 </var>
    <var id="x37"> 0 4 6 13 </var>
    <var id="x38"> 2 7 12 </var>
    <var id="x39"> 0 4 7 13 </var>
    <var id="x40"> 0 7 13 </var>
    <var id="x41"> 0 2 7 </var>
    <var id="x42"> 2 3 10 </var>
    <var id="x43"> 9 10 14 </var>
    <var id="x44"> 2 9 14 </var>
    <var id="x45"> 0 10 14 </var>
    <var id="x46"> 0 8 </var>
    <var id="x47"> 0 2 8 10 </var>
    <var id="x48"> 2 8 10 </var>
    <var id="x49"> 2 4 9 14 </var>
    <var id="x50"> 4 9 12 14 </var>
    <var id="x51"> 0 4..6 14 </var>
    <var id="x52"> 0 2 4 6 14 </var>
    <var id="x53"> 0 2 4 5 9 </var>
    <var id="x54"> 2 5 6 12 </var>
    <var id="x55"> 2 5 6 </var>
    <var id="x56"> 12 14 </var>
    <var id="x57"> 1 6 10 12 </var>
    <var id="x58"> 4 9 10 </var>
    <var id="x59"> 1 4 11 </var>
    <var id="x60"> 4 9 </var>
    <var id="x61"> 1 6 10..12 </var>
    <var id="x62"> 1 9 </var>
    <var id="x63"> 1 10 12 </var>
    <var id="x64"> 1 2 13 </var>
    <var id="x65"> 0 2 7 8 </var>
    <var id="x66"> 0..3 </var>
    <var id="x67"> 0 1 13 </var>
    <var id="x68"> 0 2 3 8 </var>
    <var id="x69"> 1 2 8 </var>
    <var id="x70"> 1 3 7 8 </var>
    <var id="x71"> 4 8..10 </var>
    <var id="x72"> 1 4 5 13 </var>
    <var id="x73"> 1 5 9 </var>
    <var id="x74"> 1 4 10 13 </var>
    <var id="x75"> 1 4 8 13 </var>
    <var id="x76"> 1 5 8 10 </var>
    <var id="x77"> 5 8 10 13 </var>
    <var id="x78"> 1 2 14 </var>
    <var id="x79"> 0..2 6 14 </var>
    <var id="x80"> 1 2 7 14 </var>
    <var id="x81"> 0 1 6 14 </var>
    <var id="x82"> 0 2 8 </var>
    <var id="x83"> 1 2 6 8 </var>
    <var id="x84"> 0 1 7 14 </var>
    <var id="x85"> 1 13 14 </var>
    <var id="x86"> 0 8 </var>
    <var id="x87"> 1 13 14 </var>
    <var id="x88"> 0 5 8 </var>
    <var id="x89"> 1 5 6 8 </var>
    <var id="x90"> 0 1 13 14 </var>
    <var id="x91"> 0 5 8 </var>
    <var id="x92"> 1..3 10 </var>
    <var id="x93"> 1 2 4 9 14 </var>
    <var id="x94"> 2 4 9 10 </var>
    <var id="x95"> 1 4 14 </var>
    <var id="x96"> 2..4 9 </var>
    <var id="x97"> 1 3 9 14 </var>
    <var id="x98"> 1 3 10 14 </var>
    <var id="x99"> 1 13 </var>
    <var id="x100"> 1 13 14 </var>
    <var id="x101"> 1 5 14 </var>
    <var id="x102"> 0 1 8 11 13 </var>
    <var id="x103"> 0 5 8 </var>
    <var id="x104"> 0 5 8 11 </var>
    <var id="x105"> 1 8 14 </var>
  </variables>
  <constraints>
    <group>
      <allDifferent> %... </allDifferent>
      <args> x0 x1 x2 x3 x4 x5 x6 </args>
      <args> x7 x8 x9 x10 x11 x12 x13 </args>
      <args> x14 x15 x16 x17 x18 x19 x20 </args>
      <args> x21 x22 x23 x24 x25 x26 x27 </args>
      <args> x28 x29 x30 x31 x32 x33 x34 </args>
      <args> x35 x36 x37 x38 x39 x40 x41 </args>
      <args> x42 x43 x44 x45 x46 x47 x48 </args>
      <args> x49 x50 x51 x52 x53 x54 x55 x56 </args>
      <args> x57 x58 x59 x60 x61 x62 x63 </args>
      <args> x64 x65 x66 x67 x68 x69 x70 </args>
      <args> x71 x72 x73 x74 x75 x76 x77 </args>
      <args> x78 x79 x80 x81 x82 x83 x84 </args>
      <args> x85 x86 x87 x88 x89 x90 x91 </args>
      <args> x92 x93 x94 x95 x96 x97 x98 </args>
      <args> x99 x100 x101 x102 x103 x104 x105 </args>
      <args> x0 x28 x35 x42 x57 x92 x99 </args>
      <args> x21 x29 x49 x64 x78 x85 x93 </args>
      <args> x1 x22 x58 x65 x71 x86 x94 </args>
      <args> x14 x30 x36 x43 x50 x87 x100 </args>
      <args> x2 x7 x15 x37 x51 x72 x95 </args>
      <args> x3 x8 x16 x31 x52 x66 x79 </args>
      <args> x9 x32 x38 x44 x73 x80 x101 </args>
      <args> x10 x23 x33 x45 x67 x74 x81 </args>
      <args> x4 x11 x39 x46 x59 x75 x102 </args>
      <args> x53 x60 x68 x82 x88 x96 x103 </args>
      <args> x17 x24 x54 x61 x69 x76 x83 x89 </args>
      <args> x25 x34 x40 x62 x84 x90 x97 </args>
      <args> x5 x12 x18 x41 x47 x91 x104 </args>
      <args> x6 x13 x19 x26 x48 x55 x77 </args>
      <args> x20 x27 x56 x63 x70 x98 x105 </args>
    </group>
  </constraints>
</instance>

